%%% Exp_DoseResponse conditions %%%
%% Produces 1 plate.
%% Testing odd number of rows

%% Plate dimentions: 
num_rows = 7; %% height
num_cols = 12; %% width


horizontal_cell_lines = 1;
vertical_cell_lines = 1;


force_empty_corners = true;
concentrations_on_different_rows = true;
concentrations_on_different_columns = true;

% (Restriction: replicates_on_different_plates /\ replicates_on_same_plate == false)
replicates_on_different_plates = true;
replicates_on_same_plate = false;

size_empty_edge = 1;



%%% Compounds %%%
compound_concentrations	 = [8, 4]; 

compound_names = ["comp\(i)" | i in 1..2];

compound_replicates	 = [2| i in 1..2]; 

compound_concentration_names = [|"a0.3", "a1", "a3", "a5", "a10", "a15", "a30", "a100"
|"b0.3", "b1", "b3", "b5", "", "", "", ""|];



%%% Controls %%%
control_replicates = [4];
control_concentrations = [1 | i in 1..num_controls];
control_names = ["neg"];

control_concentration_names =  array2d(1..num_controls, 1..1,["cont\(floor(i/1))-conc\((i mod 1) + 1)" | i in 1..num_controls*1]);  
  
